(declare-const |__tmp_383_0':146:170:177:320:328| Int)
(declare-const __VERIFIER_assert__cond___18 Int)
(declare-const havoc Int)
(declare-const |main____CPAchecker_TMP_0___0':149:172:179:322:330| Int)
(declare-const |havoc:3:62:323| Int)
(declare-const |main__t':147:167:174:317:325| Int)
(declare-const |__VERIFIER_assert__cond___18':151:171:178:321:329| Int)
(declare-const |K:165:166:173:316:324| Int)
(declare-const |main____CPAchecker_TMP_0':148:169:176:319:327| Int)
(declare-const main____CPAchecker_TMP_0___0 Int)
(declare-const __VERIFIER_assert__cond___17 Int)
(declare-const |__VERIFIER_assert__cond___17':150:168:175:318:326| Int)
(assert (and (<= (+ (- havoc) 1) 0) (not (= (+ (- havoc) 1) 0))
               (= |havoc:3:62:323| 0)
               (not (= (ite (<= (+ (- havoc) 1) 0) 1 0) 0))
               (or (not (<= (- |K:165:166:173:316:324|) 0))
                     (= (+ |main__t':147:167:174:317:325|
                             (- |K:165:166:173:316:324|)) 0))
               (or (not (and (<= (- |K:165:166:173:316:324|) 0)
                               (<= |K:165:166:173:316:324| 0)))
                     (= (+ (- __VERIFIER_assert__cond___17)
                             |__VERIFIER_assert__cond___17':150:168:175:318:326|) 0))
               (or (not (<= (+ (- |K:165:166:173:316:324|) 1) 0))
                     (= (+ |__VERIFIER_assert__cond___17':150:168:175:318:326|
                             -1) 0))
               (or (not (and (<= (- |K:165:166:173:316:324|) 0)
                               (<= |K:165:166:173:316:324| 0)))
                     (= (+ |main____CPAchecker_TMP_0':148:169:176:319:327|
                             (- |havoc:3:62:323|)) 0))
               (or (not (<= (+ (- |K:165:166:173:316:324|) 1) 0))
                     (= |main____CPAchecker_TMP_0':148:169:176:319:327| 0))
               (or (not (and (<= (- |K:165:166:173:316:324|) 0)
                               (<= |K:165:166:173:316:324| 0)))
                     (= (+ |__tmp_383_0':146:170:177:320:328|
                             (- |havoc:3:62:323|)) 0))
               (or (not (<= (+ (- |K:165:166:173:316:324|) 1) 0))
                     (= |__tmp_383_0':146:170:177:320:328| 0))
               (or (not (and (<= (- |K:165:166:173:316:324|) 0)
                               (<= |K:165:166:173:316:324| 0)))
                     (= (+ (- __VERIFIER_assert__cond___18)
                             |__VERIFIER_assert__cond___18':151:171:178:321:329|) 0))
               (or (not (<= (+ (- |K:165:166:173:316:324|) 1) 0))
                     (= (+ |__VERIFIER_assert__cond___18':151:171:178:321:329|
                             -1) 0))
               (or (not (and (<= (- |K:165:166:173:316:324|) 0)
                               (<= |K:165:166:173:316:324| 0)))
                     (= (+ (- main____CPAchecker_TMP_0___0)
                             |main____CPAchecker_TMP_0___0':149:172:179:322:330|) 0))
               (or (not (<= (+ (- |K:165:166:173:316:324|) 1) 0))
                     (= |main____CPAchecker_TMP_0___0':149:172:179:322:330| 0))
               (or (and (= |K:165:166:173:316:324| 0)
                          (= (+ __VERIFIER_assert__cond___18
                                  (- |__VERIFIER_assert__cond___18':151:171:178:321:329|)) 0)
                          (= (+ __VERIFIER_assert__cond___17
                                  (- |__VERIFIER_assert__cond___17':150:168:175:318:326|)) 0)
                          (= (+ main____CPAchecker_TMP_0___0
                                  (- |main____CPAchecker_TMP_0___0':149:172:179:322:330|)) 0)
                          (= (+ (- |main____CPAchecker_TMP_0':148:169:176:319:327|)
                                  |havoc:3:62:323|) 0)
                          (= (- |main__t':147:167:174:317:325|) 0)
                          (= (+ (- |__tmp_383_0':146:170:177:320:328|)
                                  |havoc:3:62:323|) 0))
                     (and (<= (+ (- |K:165:166:173:316:324|) 1) 0)
                            (= |havoc:3:62:323| 0) (= |havoc:3:62:323| 0)
                            (<= (+ (- havoc) 3) 0)
                            (= (+ |__VERIFIER_assert__cond___18':151:171:178:321:329|
                                    -1) 0)
                            (= (+ |__VERIFIER_assert__cond___17':150:168:175:318:326|
                                    -1) 0)
                            (= |main____CPAchecker_TMP_0':148:169:176:319:327| 0)
                            (= |main____CPAchecker_TMP_0___0':149:172:179:322:330| 0)
                            (= |__tmp_383_0':146:170:177:320:328| 0)
                            (<= (+ |main__t':147:167:174:317:325| (- havoc) 2) 0)
                            (<= (+ (- |main__t':147:167:174:317:325|) 1) 0)))
               (<= (- |K:165:166:173:316:324|) 0)
               (= |__tmp_383_0':146:170:177:320:328| 0)
               (= |main____CPAchecker_TMP_0':148:169:176:319:327| 0)
               (<= (- |main__t':147:167:174:317:325|) 0)
               (< (+ (- havoc) 1) 0) (= |__tmp_383_0':146:170:177:320:328| 0)
               (= |main____CPAchecker_TMP_0':148:169:176:319:327| 0)
               (= (+ |main__t':147:167:174:317:325| (- havoc) 2) 0)
               (= (ite (<= (+ (- |main__t':147:167:174:317:325|) -1) 0) 1 0) 0)))
(check-sat)
